100
5 11
1 75
29 74
1 89
23 63
11 11
21 97
1 25
28 63
27 47
24 35
5 2
10 4
10 22
29 32
5 32
19 54
18 26
18 28
11 2
3 63
22 24
0 56
19 74
3 98
16 38
10 69
14 53
15 52
5 96
10 25
11 80
9 39
17 60
4 79
22 11
5 79
15 54
0 85
26 55
13 5
7 74
17 86
20 53
21 3
10 27
28 81
0 11
13 19
18 39
0 89
8 40
16 38
25 4
21 79
26 11
25 56
12 63
16 13
8 85
12 69
0 48
1 20
1 22
24 87
16 89
21 64
14 45
19 80
9 30
1 60
6 95
1 79
24 11
6 79
9 12
12 8
21 51
16 75
12 72
4 40
26 39
24 95
25 11
21 33
15 86
24 34
25 13
24 97
26 9
13 20
11 77
29 37
23 14
16 55
17 27
26 0
8 3
24 50
25 75
